33D32945 STP File, STP Format Version 1.0

SECTION Comment
Name    "B00"
Creator "J. E. Beasley"
Remark  "Sparse graph with random weights"
END

SECTION Graph
Nodes 9
Edges 14
E 1 2 8
E 2 5 5
E 1 3 9
E 3 4 8
E 1 8 2
E 3 8 8
E 3 7 4
E 4 7 3
E 6 1 2
E 6 2 2
E 7 6 1
E 7 5 5
E 9 2 8
E 9 5 8

END

SECTION Terminals
Terminals 5
T 1
T 2
T 3
T 4
T 5
END

EOF
